Version identifier: 22.1.0.0 | 2022-03-09 | 1a383f8ce
CPXPARAM_Threads                                 1
CPXPARAM_MIP_Strategy_VariableSelect             3
CPXPARAM_TimeLimit                               598.47133424100002
1 of 1 MIP starts provided solutions.
MIP start 'm1' defined initial solution with objective 189.0000.
Tried aggregator 1 time.
MIP Presolve eliminated 9 rows and 0 columns.
MIP Presolve modified 4 coefficients.
Reduced MIP has 1416 rows, 5000 columns, and 70982 nonzeros.
Reduced MIP has 5000 binaries, 0 generals, 0 SOSs, and 0 indicators.
Presolve time = 0.04 sec. (38.59 ticks)
Probing time = 0.00 sec. (5.98 ticks)
Tried aggregator 1 time.
Detecting symmetries...
Reduced MIP has 1416 rows, 5000 columns, and 70982 nonzeros.
Reduced MIP has 5000 binaries, 0 generals, 0 SOSs, and 0 indicators.
Presolve time = 0.05 sec. (41.28 ticks)
Probing time = 0.00 sec. (5.98 ticks)
Clique table members: 799.
MIP emphasis: balance optimality and feasibility.
MIP search method: dynamic search.
Parallel mode: none, using 1 thread.
Root relaxation solution time = 0.71 sec. (798.96 ticks)

        Nodes                                         Cuts/
   Node  Left     Objective  IInf  Best Integer    Best Bound    ItCnt     Gap

*     0+    0                          189.0000     5000.0000              --- 
      0     0      200.0000   857      189.0000      200.0000     3546    5.82%
      0     0      200.0000   340      189.0000       Cuts: 4     5050    5.82%
      0     0      200.0000   352      189.0000      Cuts: 18     7534    5.82%
*     0+    0                          192.0000      200.0000             4.17%
*     0+    0                          194.0000      200.0000             3.09%
      0     0        cutoff            194.0000      200.0000     7534    3.09%
Detecting symmetries...
      0     2      200.0000   152      194.0000      200.0000     7534    3.09%
Elapsed time = 16.82 sec. (19624.55 ticks, tree = 0.01 MB, solutions = 3)
      1     3      200.0000   271      194.0000      200.0000    13527    3.09%
      2     4      200.0000   572      194.0000      200.0000    17066    3.09%
      3     5      200.0000   193      194.0000      200.0000    17432    3.09%
      4     6      200.0000   593      194.0000      200.0000    21190    3.09%
      5     7      200.0000   194      194.0000      200.0000    21253    3.09%
      6     8      200.0000   591      194.0000      200.0000    33180    3.09%
      7     9      200.0000   491      194.0000      200.0000    34545    3.09%
      8    10      200.0000   473      194.0000      200.0000    34883    3.09%
      9    11      200.0000   462      194.0000      200.0000    34912    3.09%
     11    13      200.0000   465      194.0000      200.0000    36938    3.09%
Elapsed time = 25.88 sec. (29985.60 ticks, tree = 0.05 MB, solutions = 3)
     12    14      200.0000   440      194.0000      200.0000    41554    3.09%
     13    15      200.0000   471      194.0000      200.0000    48613    3.09%
     16    18      200.0000   425      194.0000      200.0000    50858    3.09%
     18    20      200.0000   422      194.0000      200.0000    52998    3.09%
     21    23      200.0000   408      194.0000      200.0000    53317    3.09%
     23    25      200.0000   287      194.0000      200.0000    59421    3.09%
     25    27      200.0000   287      194.0000      200.0000    62512    3.09%
     27    29      200.0000   331      194.0000      200.0000    64745    3.09%
     28    30      200.0000   589      194.0000      200.0000    67860    3.09%
     30    32      200.0000   332      194.0000      200.0000    70776    3.09%
Elapsed time = 38.10 sec. (43893.92 ticks, tree = 0.11 MB, solutions = 3)
     32    34      200.0000   371      194.0000      200.0000    77806    3.09%
     35    37      200.0000   215      194.0000      200.0000    84697    3.09%
     37    39      200.0000   433      194.0000      200.0000    89466    3.09%
     39    41      200.0000   253      194.0000      200.0000    96937    3.09%
     43    45      200.0000   207      194.0000      200.0000   100645    3.09%
     45    47      200.0000   218      194.0000      200.0000   105399    3.09%
     47    49      199.9599   344      194.0000      200.0000   111752    3.09%
     50    52      200.0000   162      194.0000      200.0000   115724    3.09%
     52    54      200.0000   166      194.0000      200.0000   119603    3.09%
     54    56      200.0000   159      194.0000      200.0000   127061    3.09%
Elapsed time = 50.92 sec. (57490.40 ticks, tree = 0.23 MB, solutions = 3)
     56    58      199.9346   214      194.0000      200.0000   132755    3.09%
     59    61      200.0000   168      194.0000      200.0000   139229    3.09%
     63    65      200.0000   154      194.0000      200.0000   147794    3.09%
     66    68      199.6809   332      194.0000      200.0000   153929    3.09%
     70    72      200.0000   151      194.0000      200.0000   159673    3.09%
     74    76      199.9432   326      194.0000      200.0000   167014    3.09%
     78    80      199.8295   280      194.0000      200.0000   174859    3.09%
     82    84      199.7059   250      194.0000      200.0000   181001    3.09%
     87    89      198.3333   224      194.0000      200.0000   185532    3.09%
     93    95      199.9822   321      194.0000      200.0000   188244    3.09%
Elapsed time = 62.72 sec. (69233.18 ticks, tree = 0.72 MB, solutions = 3)
     99   101      198.7500   229      194.0000      200.0000   191939    3.09%
    104   106      199.9820   292      194.0000      200.0000   196719    3.09%
    109   111      199.8438   222      194.0000      200.0000   202425    3.09%
    114   116      198.3333   200      194.0000      200.0000   205907    3.09%
    120   122      199.9820   293      194.0000      200.0000   208610    3.09%
    126   128      198.3333   182      194.0000      200.0000   211575    3.09%
    132   134      199.9820   295      194.0000      200.0000   215015    3.09%
    137   139      199.9820   283      194.0000      200.0000   218935    3.09%
    141   143      199.9820   284      194.0000      200.0000   220379    3.09%
    147   149      199.9820   251      194.0000      200.0000   223385    3.09%
Elapsed time = 73.02 sec. (79527.42 ticks, tree = 1.42 MB, solutions = 3)
    153   152      199.9820   286      194.0000      200.0000   228254    3.09%
    158   157      199.9735   308      194.0000      200.0000   232529    3.09%
    161   159      198.7500   270      194.0000      200.0000   234448    3.09%
    168   166      199.9727   260      194.0000      200.0000   237852    3.09%
    173   171      198.3333   265      194.0000      200.0000   243697    3.09%
    179   177      199.0000   241      194.0000      200.0000   247759    3.09%
    186   184      198.3333   230      194.0000      200.0000   250458    3.09%
    191   189      199.8562   288      194.0000      200.0000   255005    3.09%
    196   193      199.9148   264      194.0000      200.0000   260154    3.09%
    200   197      199.8674   295      194.0000      200.0000   266611    3.09%
Elapsed time = 83.75 sec. (90082.49 ticks, tree = 2.04 MB, solutions = 3)
    205   202      199.0000   288      194.0000      200.0000   271642    3.09%
    211   208      199.7656   234      194.0000      200.0000   276402    3.09%
    216   212      198.3333   206      194.0000      200.0000   281958    3.09%
    221   217      199.8674   301      194.0000      200.0000   284943    3.09%
    226   220      199.0000   283      194.0000      200.0000   288675    3.09%
    231   224      199.8090   274      194.0000      200.0000   293419    3.09%
    237   230      198.3333   204      194.0000      200.0000   296305    3.09%
    244   237      199.7569   229      194.0000      200.0000   300107    3.09%
    249   242      199.4094   222      194.0000      200.0000   305680    3.09%
    255   248      199.7093   220      194.0000      200.0000   309915    3.09%
Elapsed time = 94.47 sec. (100466.04 ticks, tree = 2.70 MB, solutions = 3)
    260   253      198.7500   194      194.0000      200.0000   314386    3.09%
    267   258      199.6951   214      194.0000      200.0000   319713    3.09%
    274   265      198.3333   214      194.0000      200.0000   322553    3.09%
*   280+  269                          195.0000      200.0000             2.56%
    280   271      199.6951   219      195.0000      200.0000   325368    2.56%
    287   278      198.3333   173      195.0000      200.0000   329157    2.56%
    290   281      199.0000   145      195.0000      200.0000   331826    2.56%
    295   285      198.0000    74      195.0000      200.0000   340548    2.56%
    297   285      199.7872   268      195.0000      200.0000   348233    2.56%
    300   288      199.7872   272      195.0000      200.0000   349951    2.56%
    305   293      199.7159   228      195.0000      200.0000   355654    2.56%
Elapsed time = 106.27 sec. (111757.53 ticks, tree = 3.32 MB, solutions = 4)
    311   299      199.7727   224      195.0000      200.0000   359031    2.56%
    315   303      199.7727   227      195.0000      200.0000   363526    2.56%
    320   308      198.3333   210      195.0000      200.0000   367845    2.56%
    326   314      199.7727   239      195.0000      200.0000   370236    2.56%
    332   320      198.7500   203      195.0000      200.0000   373155    2.56%
    338   326      198.7500   126      195.0000      200.0000   377409    2.56%
    341   329      198.7500   212      195.0000      200.0000   384251    2.56%
    345   333      198.0000   151      195.0000      200.0000   390196    2.56%
    350   338      198.0000    65      195.0000      200.0000   394916    2.56%
    354   342      198.0000   173      195.0000      200.0000   401718    2.56%
Elapsed time = 117.46 sec. (122633.03 ticks, tree = 3.94 MB, solutions = 4)
    359   347      198.0000   241      195.0000      200.0000   411524    2.56%
    362   350      198.0000   151      195.0000      200.0000   415546    2.56%
    367   355      197.9091   141      195.0000      200.0000   423082    2.56%
    371   359      198.0000   142      195.0000      200.0000   428975    2.56%
    377   365      198.0000   110      195.0000      200.0000   435565    2.56%
    381   369      198.0000   101      195.0000      200.0000   439459    2.56%
    387   375      198.0000   153      195.0000      200.0000   446274    2.56%
    395   380      196.6667   159      195.0000      200.0000   452312    2.56%
    400   382      199.7872   337      195.0000      200.0000   458732    2.56%
    421   402      199.9432   245      195.0000      200.0000   472656    2.56%
Elapsed time = 133.65 sec. (137767.64 ticks, tree = 4.74 MB, solutions = 4)
    440   421      199.9432   290      195.0000      200.0000   486104    2.56%
    460   441      199.9432   279      195.0000      200.0000   494777    2.56%
    484   465      199.8913   317      195.0000      200.0000   503983    2.56%
    511   492      199.8485   288      195.0000      200.0000   509135    2.56%
*   515+  487                          196.0000      200.0000             2.04%
*   516+  476                          197.0000      200.0000             1.52%
    519   481      199.9432   293      197.0000      200.0000   519073    1.52%
    538   500      199.8295   268      197.0000      200.0000   533769    1.52%
    563   525      199.8256   261      197.0000      200.0000   542882    1.52%
    587   547      199.7350   244      197.0000      200.0000   554648    1.52%
    610   569      199.6622   296      197.0000      200.0000   562236    1.52%

Performing restart 1

Repeating presolve.
Tried aggregator 1 time.
Reduced MIP has 1416 rows, 5000 columns, and 70982 nonzeros.
Reduced MIP has 5000 binaries, 0 generals, 0 SOSs, and 0 indicators.
Presolve time = 0.04 sec. (35.55 ticks)
Tried aggregator 1 time.
Reduced MIP has 1416 rows, 5000 columns, and 70982 nonzeros.
Reduced MIP has 5000 binaries, 0 generals, 0 SOSs, and 0 indicators.
Presolve time = 0.05 sec. (42.30 ticks)
Represolve time = 0.31 sec. (241.03 ticks)
    626     0      200.0000   288      197.0000      Cuts: 10   570731    1.52%
    626     0      200.0000   572      197.0000      Cuts: 11   574368    1.52%
    626     0      200.0000   152      197.0000    Cliques: 4   574653    1.52%
    626     0      200.0000   415      197.0000      Cuts: 60   577310    1.52%
    626     0      200.0000   401      197.0000      Cuts: 17   580569    1.52%
    626     0      200.0000   263      197.0000      Cuts: 12   583408    1.52%
    626     2      200.0000    80      197.0000      200.0000   583408    1.52%
Elapsed time = 216.17 sec. (223130.67 ticks, tree = 0.01 MB, solutions = 6)
    630     6      200.0000   801      197.0000      200.0000   595888    1.52%
    633     9      200.0000   767      197.0000      200.0000   612097    1.52%
    635    11      200.0000   275      197.0000      200.0000   622742    1.52%
    641    17      200.0000   238      197.0000      200.0000   637232    1.52%
    647    23      200.0000   231      197.0000      200.0000   649769    1.52%
    651    27      200.0000   447      197.0000      200.0000   665645    1.52%
    655    31      200.0000   394      197.0000      200.0000   677040    1.52%
    662    38      200.0000   305      197.0000      200.0000   691501    1.52%
    673    49      200.0000   185      197.0000      200.0000   702598    1.52%
    680    56      200.0000   251      197.0000      200.0000   719634    1.52%
Elapsed time = 254.88 sec. (266245.49 ticks, tree = 0.40 MB, solutions = 6)
    687    63      200.0000   353      197.0000      200.0000   732413    1.52%
    692    68      200.0000   363      197.0000      200.0000   747276    1.52%
    699    75      199.9940   415      197.0000      200.0000   765090    1.52%
    705    81      200.0000   182      197.0000      200.0000   783384    1.52%
    710    86      200.0000   193      197.0000      200.0000   800672    1.52%
    717    93      200.0000   189      197.0000      200.0000   817087    1.52%
    726   102      200.0000   228      197.0000      200.0000   834127    1.52%
    732   108      200.0000   181      197.0000      200.0000   855606    1.52%
    740   116      200.0000   163      197.0000      200.0000   878576    1.52%
    747   123      199.9644   286      197.0000      200.0000   895692    1.52%
Elapsed time = 297.08 sec. (308320.57 ticks, tree = 0.92 MB, solutions = 6)
    758   134      199.0000   277      197.0000      200.0000   911139    1.52%
    777   153      199.9285   284      197.0000      200.0000   920542    1.52%
    792   166      199.6850   279      197.0000      200.0000   933625    1.52%
    814   188      198.9565   285      197.0000      200.0000   943681    1.52%
    826   200      198.9565   327      197.0000      200.0000   953666    1.52%
    843   216      199.5556   248      197.0000      200.0000   965574    1.52%
    864   235      199.4944   336      197.0000      200.0000   975289    1.52%
    882   253      199.4622   330      197.0000      200.0000   986148    1.52%
    901   271      198.9565   286      197.0000      200.0000   996908    1.52%
    918   288      199.3966   306      197.0000      200.0000  1007246    1.52%
Elapsed time = 353.56 sec. (361684.23 ticks, tree = 1.85 MB, solutions = 6)
    938   307      199.2453   277      197.0000      200.0000  1018150    1.52%
    955   320      199.1706   299      197.0000      200.0000  1030937    1.52%
    975   329      198.9091   231      197.0000      200.0000  1045323    1.52%
    998   338      198.8000   255      197.0000      200.0000  1058063    1.52%
   1027   343      198.2692   277      197.0000      200.0000  1068127    1.52%
   1057   349      200.0000   869      197.0000      200.0000  1079689    1.52%
   1061   353      200.0000   846      197.0000      200.0000  1090396    1.52%
   1066   358      200.0000   670      197.0000      200.0000  1094188    1.52%
   1071   363      200.0000   676      197.0000      200.0000  1101301    1.52%
   1076   368      200.0000   576      197.0000      200.0000  1109856    1.52%
Elapsed time = 396.52 sec. (405528.02 ticks, tree = 2.04 MB, solutions = 6)
   1085   377      200.0000   462      197.0000      200.0000  1115119    1.52%
   1091   383      200.0000   362      197.0000      200.0000  1126966    1.52%
   1097   389      200.0000   350      197.0000      200.0000  1138273    1.52%
   1103   395      200.0000   317      197.0000      200.0000  1148873    1.52%
   1107   399      200.0000   353      197.0000      200.0000  1164050    1.52%
   1114   406      200.0000   297      197.0000      200.0000  1175698    1.52%
   1119   409      200.0000   428      197.0000      200.0000  1189809    1.52%
   1126   414      200.0000   258      197.0000      200.0000  1203482    1.52%
   1133   421      200.0000   187      197.0000      200.0000  1218761    1.52%
   1139   426      199.7500   200      197.0000      200.0000  1235023    1.52%
Elapsed time = 436.81 sec. (447003.94 ticks, tree = 2.30 MB, solutions = 6)
   1149   433      200.0000   169      197.0000      200.0000  1252715    1.52%
   1156   433      200.0000   129      197.0000      200.0000  1275884    1.52%
   1164   435      199.5000   149      197.0000      200.0000  1300346    1.52%
   1172   439      200.0000   114      197.0000      200.0000  1320977    1.52%
   1179   441      200.0000   138      197.0000      200.0000  1341922    1.52%
   1186   442      199.1667   186      197.0000      200.0000  1363639    1.52%
   1196   440      199.8750   172      197.0000      200.0000  1387170    1.52%
   1205   440      200.0000   156      197.0000      200.0000  1406507    1.52%
   1217   450    infeasible            197.0000      200.0000  1421959    1.52%
   1226   455      199.5000   105      197.0000      200.0000  1442720    1.52%
Elapsed time = 481.47 sec. (490686.85 ticks, tree = 2.50 MB, solutions = 6)
   1233   459      199.7000   169      197.0000      200.0000  1463416    1.52%
   1242   467      199.9821   192      197.0000      200.0000  1479094    1.52%
   1247   469      200.0000   111      197.0000      200.0000  1495837    1.52%
   1253   474      199.9512   169      197.0000      200.0000  1518498    1.52%
   1259   479      200.0000   135      197.0000      200.0000  1539115    1.52%
   1266   484      200.0000   125      197.0000      200.0000  1560046    1.52%
   1271   487      199.7000   164      197.0000      200.0000  1581456    1.52%
   1278   493      199.5000   112      197.0000      200.0000  1600734    1.52%
   1285   495      199.8000   220      197.0000      200.0000  1622835    1.52%
   1294   502      199.6000   215      197.0000      200.0000  1637728    1.52%
Elapsed time = 524.78 sec. (533596.19 ticks, tree = 2.80 MB, solutions = 6)
   1307   509      199.0000   150      197.0000      200.0000  1650573    1.52%
   1323   513      199.0000   160      197.0000      200.0000  1670002    1.52%
   1337   515      200.0000   104      197.0000      200.0000  1686263    1.52%
   1342   516      200.0000   136      197.0000      200.0000  1703606    1.52%
   1346   518      199.8000   186      197.0000      200.0000  1714134    1.52%
   1356   521      199.0000   196      197.0000      200.0000  1733409    1.52%
   1365   522      199.0000   182      197.0000      200.0000  1753860    1.52%
   1378   533      199.0000   250      197.0000      200.0000  1766296    1.52%
   1390   539    infeasible            197.0000      200.0000  1782662    1.52%
   1402   545      199.0000   126      197.0000      200.0000  1800585    1.52%
Elapsed time = 565.64 sec. (573558.79 ticks, tree = 3.30 MB, solutions = 6)
   1414   546      199.7000   113      197.0000      200.0000  1825452    1.52%
   1420   548      199.9434   206      197.0000      200.0000  1844778    1.52%
Starting limited solution polishing.
   1433   560      199.8286   164      197.0000      200.0000  1856243    1.52%
   1445   565      199.0000   129      197.0000      200.0000  1874231    1.52%
   1463   577      199.0000    84      197.0000      200.0000  1888758    1.52%
   1478   585      199.0000   108      197.0000      200.0000  1907813    1.52%
   1486   587      199.8152   189      197.0000      200.0000  1931063    1.52%

Clique cuts applied:  5

Root node processing (before b&c):
  Real time             =   16.73 sec. (19531.06 ticks)
Sequential b&c:
  Real time             =  581.74 sec. (585979.53 ticks)
                          ------------
Total (root+branch&cut) =  598.47 sec. (605510.60 ticks)
Primal:	197
Dual:	200
Status:	Feasible
Time:	598.41
Sequence:
	23
	8
	14
	7
	21
	1
	19
	12
	14
	7
	21
	1
	18
	12
	15
	7
	10
	16
	7
	23
	0
	18
	12
	14
	7
	23
	0
	18
	12
	14
	7
	20
	3
	7
	18
	5
	19
	7
	3
	18
	7
	17
	7
	18
	3
	18
	9
	3
	7
	18
	3
	20
	7
	5
	18
	7
	4
	18
	7
	16
	10
	19
	1
	21
	7
	14
	12
	19
	1
	21
	7
	14
	13
	14
	7
	16
	10
	8
	14
	10
	16
	7
	10
	15
	7
	18
	5
	18
	9
	14
	7
	21
	1
	19
	12
	14
	7
	12
	14
	9
	10
	14
	7
	18
	5
	7
	20
	3
	7
	16
	10
	9
	14
	10
	18
	1
	21
	8
	16
	10
	7
	14
	13
	7
	14
	12
	7
	16
	10
	18
	2
	21
	7
	14
	10
	20
	1
	21
	7
	14
	10
	15
	7
	18
	5
	18
	8
	5
	18
	7
	16
	7
	18
	6
	7
	18
	3
	18
	7
	3
	7
	14
	8
	23
	1
	18
	10
	15
	7
	21
	1
	18
	11
	14
	7
	12
	14
	9
	10
	14
	7
	21
	2
	18
	12
	14
	7
	21
	2
	18
	10
	16
	7
	21
	2
	18
	10
